RT is False
Default write of storage_offers_DA.csv just to have a file (but constraint should be inactive)
Reading model...
...model read.
creating competitive generators file...
...competitive generators recorded.
Loading data...
.. day-ahead data read.
Compiling instance...
...instance created.
Creating Offer Mitigation (model will solve as dispatch if TRUE)...
NOTE: storage offers will not be mitigated
...storage offer mitigation file created
Converting model to MPEC...
...converted
NOTE: initial MIP solve with only storage competitive to get feasible solution
Solving...

Welcome to IBM(R) ILOG(R) CPLEX(R) Interactive Optimizer 12.9.0.0
  with Simplex, Mixed Integer & Barrier Optimizers
5725-A06 5725-A29 5724-Y48 5724-Y49 5724-Y54 5724-Y55 5655-Y21
Copyright IBM Corp. 1988, 2019.  All Rights Reserved.

Type 'help' for a list of available commands.
Type 'help' followed by a command name for more
information on commands.

CPLEX> Logfile 'cplex.log' closed.
Logfile 'C:\Users\Luke\Desktop\test919\logs\tmp93tr5ch5.cplex.log' open.
CPLEX> New value for parallel optimization mode: -1
CPLEX> New value for mixed integer optimality gap tolerance: 0.01
CPLEX> New value for integrality tolerance: 1e-09
CPLEX> New value for feasibility tolerance: 0.01
CPLEX> New value for deterministic time limit in ticks: 75000
CPLEX> Problem 'C:\Users\Luke\Desktop\test919\logs\tmpx4kyhoyn.pyomo.lp' read.
Read time = 0.22 sec. (14.73 ticks)
CPLEX> Problem name         : C:\Users\Luke\Desktop\test919\logs\tmpx4kyhoyn.pyomo.lp
Objective sense      : Maximize
Variables            :   53805  [Nneg: 1,  Box: 22000,  Free: 4464,
                                 Binary: 27340]
Objective nonzeros   :    9116
Linear constraints   :  123205  [Less: 41346,  Greater: 59096,  Equal: 22763]
  Nonzeros           :  291840
  RHS nonzeros       :   67578

Variables            : Min LB: -5000.000        Max UB: 1000000.       
Objective nonzeros   : Min   : 0.1000000        Max   : 2500.000       
Linear constraints   :
  Nonzeros           : Min   : 0.1000000        Max   : 1000000.       
  RHS nonzeros       : Min   : 0.1000000        Max   : 1000000.       
CPLEX> CPXPARAM_Parallel                                -1
CPXPARAM_Simplex_Tolerances_Feasibility          0.01
CPXPARAM_DetTimeLimit                            75000
CPXPARAM_MIP_Tolerances_MIPGap                   0.01
CPXPARAM_MIP_Tolerances_Integrality              1.0000000000000001e-09
Tried aggregator 3 times.
MIP Presolve eliminated 88228 rows and 18622 columns.
MIP Presolve added 3469 rows and 0 columns.
MIP Presolve modified 24969 coefficients.
Aggregator did 12999 substitutions.
Reduced MIP has 25447 rows, 21698 columns, and 72408 nonzeros.
Reduced MIP has 8587 binaries, 0 generals, 0 SOSs, and 0 indicators.
Presolve time = 0.25 sec. (173.99 ticks)
Probing fixed 397 vars, tightened 2911 bounds.
Probing time = 1.44 sec. (900.08 ticks)
Tried aggregator 2 times.
MIP Presolve eliminated 899 rows and 798 columns.
MIP Presolve modified 2300 coefficients.
Aggregator did 44 substitutions.
Reduced MIP has 24504 rows, 20856 columns, and 69675 nonzeros.
Reduced MIP has 8188 binaries, 0 generals, 0 SOSs, and 0 indicators.
Presolve time = 0.11 sec. (74.28 ticks)
Probing fixed 5 vars, tightened 13 bounds.
Probing time = 0.19 sec. (122.31 ticks)
Clique table members: 8009.
MIP emphasis: balance optimality and feasibility.
MIP search method: dynamic search.
Parallel mode: opportunistic, using up to 24 threads.
Root relaxation solution time = 0.33 sec. (267.79 ticks)

        Nodes                                         Cuts/
   Node  Left     Objective  IInf  Best Integer    Best Bound    ItCnt     Gap

      0     0     4065.1925  1952                   4065.1925     5691         
      0     0     4065.1925   720                   Cuts: 680     6010         
      0     0     4065.1925   589                   Cuts: 474     6226         
      0     0     4065.1925   497                   Cuts: 292     6362         
      0     0     4065.1925   450                   Cuts: 113     6420         
      0     0     4065.1925   418                    Cuts: 78     6466         
      0     0     4065.1925   408                    Cuts: 42     6485         
      0     0     4065.1925   397                    Cuts: 38     6503         
      0     0     4065.1925   386                    Cuts: 20     6517         
      0     0     4065.1925   386                    Cuts: 17     6518         
      0     0     4065.1925   387                    Cuts: 18     6529         
      0     5    infeasible                          Fract: 1     6699         
Elapsed time = 10.75 sec. (7169.93 ticks, tree = 0.02 MB, solutions = 0)
    395    96     4054.8519   354                   4044.3959     8566         
    679   733     4054.8519   345                   4044.3959    26611         
   1414   699     3560.9032   289                   4044.3959    26571         
   2109  1226     3560.9032   279                   4044.3959    27156         
   2718  2074     3619.6662   256                   4044.3959    28145         
   3315  2509     4065.1925   279                   4044.3959    28256         
   4102  3575     4056.6024   286                   4044.3959    28764         
   4800  3417     4022.1993   233                   4044.3959    28609         
   5515  4284     4022.1993   208                   4044.3959    29791         
   8391  6196    infeasible                         4044.3959    31821         
Elapsed time = 19.20 sec. (10272.58 ticks, tree = 55.37 MB, solutions = 0)
   8864  8222    infeasible                         4044.3959    37372         
   9402  8837     -199.6026    23                   4044.3959    58538         
  10214  9404     4065.1925    63                   4044.3959    79152         
  10774  8659    infeasible                         4044.3959    49082         
  11042  9423     4065.1925    15                   4044.3959    79607         
  11222  9551     4065.1925    16                   4044.3959    81052         
  11363  9736     4022.1993    19                   4044.3959    85523         
  11476  9669     3454.1433    18                   4044.3959    83042         
  11619  9968     4065.1925    14                   4044.3959    90558         
  11706  9973     4065.1925    11                   4044.3959    90568         
Elapsed time = 30.45 sec. (19861.29 ticks, tree = 99.61 MB, solutions = 0)
  11825 10191     4056.6024    13                   4044.3959    94374         
  11927 10046     3454.1433    18                   4044.3959    92793         
  12030 10289     3541.9921    11                   4044.3959    96638         
  12117 10423     3810.0105    12                   4044.3959    99888         
  12225 10485     4065.1925    11                   4044.3959   102432         
  12326 10413     4065.1925    14                   4044.3959    99467         
  12415 10558     4065.1925    13                   4044.3959   103220         
  12491 10441     4065.1925    13                   4044.3959   101266         
  12592 10827     4065.1925    12                   4044.3959   108527         
  12664 10557    infeasible                         4044.3959   103097         
Elapsed time = 37.86 sec. (29456.09 ticks, tree = 107.05 MB, solutions = 0)
  12767 10579     4022.1993    19                   4044.3959   103217         
  12862 11019     4065.1925    14                   4044.3959   112357         
  12947 10610     3454.1433    18                   4044.3959   104089         
  13032 10705    infeasible                         4044.3959   105342         
  13117 10773     3810.0105    15                   4044.3959   107549         
  13211 10741     4022.1993    19                   4044.3959   106620         
  13280 10871     4065.1925    13                   4044.3959   108834         
  13365 11139     4065.1925    12                   4044.3959   114543         
  13445 10939     3541.9921    12                   4044.3959   109828         
  13520 10844    infeasible                         4044.3959   108635         
Elapsed time = 43.91 sec. (39118.00 ticks, tree = 110.63 MB, solutions = 0)
  13595 10944     3541.9921    11                   4044.3959   109834         
  13672 11000     4022.1993    18                   4044.3959   111730         
  13761 11056     4065.1925    12                   4044.3959   112852         
  13838 11000     4022.1993    19                   4044.3959   111733         
  13913 11317     3541.9921    12                   4044.3959   115775         
  13985 11107    infeasible                         4044.3959   113209         
  14047 11057    infeasible                         4044.3959   112829         
  14136 11100     4065.1925    12                   4044.3959   112988         
  14199 11175     4065.1925    13                   4044.3959   114689         
  14273 11216     4065.1925    12                   4044.3959   115186         
Elapsed time = 50.16 sec. (48820.43 ticks, tree = 115.39 MB, solutions = 0)
  14332 11334     4065.1925    13                   4044.3959   115850         
  14401 11260    infeasible                         4044.3959   115578         
  14439 11295    infeasible                         4044.3959   115710         
  14508 11290    infeasible                         4044.3959   115692         
  14574 11325    infeasible                         4044.3959   115796         
  14618 11432     4022.1993    19                   4044.3959   116108         
  14673 11393     4022.1993    20                   4044.3959   115976         
  14722 11521    infeasible                         4044.3959   116742         
  14789 11418     4065.1925    13                   4044.3959   116073         
  14833 11497    infeasible                         4044.3959   116682         
Elapsed time = 56.25 sec. (58515.88 ticks, tree = 119.22 MB, solutions = 0)
  14880 11606    infeasible                         4044.3959   117296         
  14922 11664     4065.1925    12                   4044.3959   118589         
  14975 11551    infeasible                         4044.3959   116918         
  15023 11557    infeasible                         4044.3959   116967         
  15069 11704     4065.1925    12                   4044.3959   118743         
  15113 11779     4065.1925    11                   4044.3959   118966         
  15156 11666    infeasible                         4044.3959   118617         
  15199 11778    infeasible                         4044.3959   118969         
  15228 11714    infeasible                         4044.3959   118779         
  15274 11713    infeasible                         4044.3959   118786         
Elapsed time = 59.44 sec. (68254.13 ticks, tree = 122.32 MB, solutions = 0)
  15308 11721     4065.1925    12                   4044.3959   118794         
  15339 11733     4022.1993    19                   4044.3959   118830         
  15369 11765    infeasible                         4044.3959   118926         
  15399 11752     4022.1993    19                   4044.3959   118893         
  15418 11735    infeasible                         4044.3959   118840         
  15442 11750     4022.1993    18                   4044.3959   118888         

Clique cuts applied:  18
Implied bound cuts applied:  25
Flow cuts applied:  513
Mixed integer rounding cuts applied:  8
Gomory fractional cuts applied:  30

Root node processing (before b&c):
  Real time             =   10.36 sec. (7162.22 ticks)
Parallel b&c, 24 threads:
  Real time             =   50.83 sec. (69113.91 ticks)
  Sync time (average)   =    0.26 sec.
  Wait time (average)   =    0.00 sec.
                          ------------
Total (root+branch&cut) =   61.19 sec. (76276.14 ticks)


MIP - Deterministic time limit exceeded, no integer solution.
Current MIP best bound =  4.0443958683e+03 (gap is infinite)
Solution time =   61.19 sec.  Iterations = 119486  Nodes = 15452 (11892)
Deterministic time = 76276.29 ticks  (1246.59 ticks/sec)

CPLEX> CPLEX Error  1217: No solution exists.
No file written.
CPLEX> gap is infinite, so writing 0
NOTE: no warmstart specified for MIP iteration, default behavior is true
NOTE: resolving with all competitive generators using storage-only solution to warmstart
Solving...

Welcome to IBM(R) ILOG(R) CPLEX(R) Interactive Optimizer 12.9.0.0
  with Simplex, Mixed Integer & Barrier Optimizers
5725-A06 5725-A29 5724-Y48 5724-Y49 5724-Y54 5724-Y55 5655-Y21
Copyright IBM Corp. 1988, 2019.  All Rights Reserved.

Type 'help' for a list of available commands.
Type 'help' followed by a command name for more
information on commands.

CPLEX> Logfile 'cplex.log' closed.
Logfile 'C:\Users\Luke\Desktop\test919\logs\tmprswk2gc7.cplex.log' open.
CPLEX> New value for parallel optimization mode: -1
CPLEX> New value for mixed integer optimality gap tolerance: 0.01
CPLEX> New value for integrality tolerance: 1e-09
CPLEX> New value for feasibility tolerance: 0.01
CPLEX> New value for deterministic time limit in ticks: 75000
CPLEX> Problem 'C:\Users\Luke\Desktop\test919\logs\tmpmhy7ozq8.pyomo.lp' read.
Read time = 0.20 sec. (14.75 ticks)
CPLEX> MIP start file 'C:\Users\Luke\Desktop\test919\logs\tmpg_em_br_.cplex.mst' read.
CPLEX> Problem name         : C:\Users\Luke\Desktop\test919\logs\tmpmhy7ozq8.pyomo.lp
Objective sense      : Maximize
Variables            :   54525  [Nneg: 1,  Box: 22720,  Free: 4464,
                                 Binary: 27340]
Objective nonzeros   :    9836
Linear constraints   :  123205  [Less: 41346,  Greater: 59096,  Equal: 22763]
  Nonzeros           :  291840
  RHS nonzeros       :   67578

Variables            : Min LB: -5000.000        Max UB: 1000000.       
Objective nonzeros   : Min   : 0.1000000        Max   : 2500.000       
Linear constraints   :
  Nonzeros           : Min   : 0.1000000        Max   : 1000000.       
  RHS nonzeros       : Min   : 0.1000000        Max   : 1000000.       
CPLEX> CPXPARAM_Parallel                                -1
CPXPARAM_Simplex_Tolerances_Feasibility          0.01
CPXPARAM_DetTimeLimit                            75000
CPXPARAM_MIP_Tolerances_MIPGap                   0.01
CPXPARAM_MIP_Tolerances_Integrality              1.0000000000000001e-09
Warning:  No solution found from 1 MIP starts.
Retaining values of one MIP start for possible repair.
Tried aggregator 3 times.
MIP Presolve eliminated 88228 rows and 19342 columns.
MIP Presolve added 3469 rows and 0 columns.
MIP Presolve modified 24969 coefficients.
Aggregator did 12999 substitutions.
Reduced MIP has 25447 rows, 21698 columns, and 72408 nonzeros.
Reduced MIP has 8587 binaries, 0 generals, 0 SOSs, and 0 indicators.
Presolve time = 0.23 sec. (174.35 ticks)
Probing fixed 397 vars, tightened 2911 bounds.
Probing time = 1.45 sec. (900.08 ticks)
Tried aggregator 2 times.
MIP Presolve eliminated 899 rows and 798 columns.
MIP Presolve modified 2300 coefficients.
Aggregator did 44 substitutions.
Reduced MIP has 24504 rows, 20856 columns, and 69675 nonzeros.
Reduced MIP has 8188 binaries, 0 generals, 0 SOSs, and 0 indicators.
Presolve time = 0.11 sec. (74.28 ticks)
Probing fixed 5 vars, tightened 13 bounds.
Probing time = 0.20 sec. (122.31 ticks)
Clique table members: 8009.
MIP emphasis: balance optimality and feasibility.
MIP search method: dynamic search.
Parallel mode: opportunistic, using up to 24 threads.
Root relaxation solution time = 0.33 sec. (267.79 ticks)

        Nodes                                         Cuts/
   Node  Left     Objective  IInf  Best Integer    Best Bound    ItCnt     Gap

      0     0     4065.1925  1952                   4065.1925     5691         
      0     0     4065.1925   720                   Cuts: 680     6010         
      0     0     4065.1925   589                   Cuts: 474     6226         
      0     0     4065.1925   497                   Cuts: 292     6362         
      0     0     4065.1925   450                   Cuts: 113     6420         
      0     0     4065.1925   418                    Cuts: 78     6466         
      0     0     4065.1925   408                    Cuts: 42     6485         
      0     0     4065.1925   397                    Cuts: 38     6503         
      0     0     4065.1925   386                    Cuts: 20     6517         
      0     0     4065.1925   386                    Cuts: 17     6518         
      0     0     4065.1925   387                    Cuts: 18     6529         
Repair heuristic found nothing.
      0     6    infeasible                          Fract: 1     6700         
Elapsed time = 10.83 sec. (7207.01 ticks, tree = 0.02 MB, solutions = 0)
    203   109     4022.1993   360                   4044.3959     8554         
    623   168     3700.7353   350                   4044.3959    10037         
   1228   419     4022.1993   293                   4044.3959    11520         
   2019  1170     4056.6024   296                   4044.3959    18540         
   2875  1716     4022.1993   267                   4044.3959    24219         
   3541  2058     4065.1925   251                   4044.3959    24372         
   4228  3210     1504.3928   211                   4044.3959    25479         
   5116  3268     3918.5209   210                   4044.3959    25669         
   5962  4085     4022.1993   206                   4044.3959    27225         
   8404  7130     4022.1993   163                   4044.3959    29778         
Elapsed time = 19.83 sec. (10311.07 ticks, tree = 103.72 MB, solutions = 0)
   8731  8056     4056.6024   163                   4044.3959    32034         
   8944  8217    infeasible                         4044.3959    33445         
   9218  8608      231.0228    30                   4044.3959    50333         
  10072  8508     4065.1925   282                   4044.3959    39492         
  11629  9655     4056.6024   253                   4044.3959    78305         
  13988 12413     4065.1925   101                   4044.3959    91417         
  16544 11313     4065.1925    84                   4044.3959    89322         
  17764 12504     4043.1115    17                   4044.3959    91617         
  18115 14280     2807.7584    43                   4044.3959    94862         
  18472 13882     3725.4898    74                   4044.3959    94133         
Elapsed time = 38.30 sec. (19875.14 ticks, tree = 202.09 MB, solutions = 0)
  18735 15015     4043.1115    96                   4044.3959    98317         
  18946 15896     4043.1115    10                   4044.3959   101645         
  19079 16351     4043.1115    12                   4044.3959   103459         
  19362 16909     4043.1115   106                   4044.3959   111275         
  19749 17015     4043.1115    11                   4044.3959   111402         
  19926 16818     4056.6024     9                   4044.3959   111165         
  20180 16923     4043.1115    11                   4044.3959   108850         
  20369 16947     4043.1115   158                   4044.3959   108995         
  20732 16571     4022.1993    18                   4044.3959   105739         
  21041 17439     3857.7634    11                   4044.3959   113312         
Elapsed time = 47.16 sec. (29439.97 ticks, tree = 250.72 MB, solutions = 0)
  21327 17638     4043.1115     9                   4044.3959   118358         
  21709 18370     3905.0300    50                   4044.3959   124415         
  22102 17764     4043.1115    12                   4044.3959   118562         
  22387 17689     4043.1115   159                   4044.3959   114889         
  22855 17530     4043.1115   108                   4044.3959   115572         
  23409 17660     3746.8520    12                   4044.3959   115738         
  23738 19275     4043.1115   136                   4044.3959   130311         
  24328 17873     4043.1115    19                   4044.3959   119586         
  24762 20501     3905.0300    43                   4044.3959   137023         
  25021 17793     4043.1115    10                   4044.3959   121225         
Elapsed time = 59.83 sec. (39001.20 ticks, tree = 256.28 MB, solutions = 0)
  25241 17774     4043.1115    10                   4044.3959   120709         
  25542 18027    infeasible                         4044.3959   122614         
  26036 19358     3905.0300    70                   4044.3959   125974         
  26707 18238     4065.1925    48                   4044.3959   122933         
  27296 19310     4043.1115   146                   4044.3959   129512         
  28053 19484     4043.1115   177                   4044.3959   129749         
  28601 19743     4043.1115    83                   4044.3959   127205         
  28833 18335     4043.1115    12                   4044.3959   126400         
  29347 18336     4043.1115    10                   4044.3959   126418         
  30174 19818     3905.0300    38                   4044.3959   130838         
Elapsed time = 69.66 sec. (48551.88 ticks, tree = 282.10 MB, solutions = 0)
  30689 19984     4043.1115    75                   4044.3959   131091         
  30928 21627     4043.1115   117                   4044.3959   138832         
  31496 19404     4043.1115    62                   4044.3959   128746         
  32230 22051     4043.1115   101                   4044.3959   141705         
  32557 20154     4043.1115    41                   4044.3959   132966         
  32798 21451     4043.1115    54                   4044.3959   138114         
  32926 21510     4043.1115   192                   4044.3959   138423         
  33151 20476     3725.4898     9                   4044.3959   137821         
  33481 21846     4065.1925    63                   4044.3959   138859         
  33663 20388     4043.1115    10                   4044.3959   136890         
Elapsed time = 74.63 sec. (58161.32 ticks, tree = 289.35 MB, solutions = 0)
  33733 20483     4056.6024     9                   4044.3959   137887         
  33791 19389    infeasible                         4044.3959   132229         
  33841 20491     4043.1115    10                   4044.3959   138010         
  33888 20384     4043.1115    10                   4044.3959   136842         
  33925 20479     3725.4898     9                   4044.3959   137830         
  33974 20447     4056.6024    10                   4044.3959   137487         
  34009 22189     4065.1925    10                   4044.3959   142609         
  34054 20970    infeasible                         4044.3959   139857         
  34082 20955    infeasible                         4044.3959   139817         
  34118 20992    infeasible                         4044.3959   140406         
Elapsed time = 75.59 sec. (67902.84 ticks, tree = 297.15 MB, solutions = 0)
  34155 20957     3083.2349    15                   4044.3959   139822         
  34181 20972     4043.1115     9                   4044.3959   139863         
  34218 20979     4043.1115     9                   4044.3959   139879         
  34246 20977    infeasible                         4044.3959   139873         
  34275 20978     3083.2349    15                   4044.3959   139876         
  34288 21992    infeasible                         4044.3959   141675         
  34305 21979    infeasible                         4044.3959   141620         

Clique cuts applied:  18
Implied bound cuts applied:  22
Flow cuts applied:  515
Mixed integer rounding cuts applied:  8
Gomory fractional cuts applied:  30

Root node processing (before b&c):
  Real time             =   10.36 sec. (7199.67 ticks)
Parallel b&c, 24 threads:
  Real time             =   65.47 sec. (68963.30 ticks)
  Sync time (average)   =    0.32 sec.
  Wait time (average)   =    0.00 sec.
                          ------------
Total (root+branch&cut) =   75.83 sec. (76162.97 ticks)


MIP - Deterministic time limit exceeded, no integer solution.
Current MIP best bound =  4.0443958683e+03 (gap is infinite)
Solution time =   75.86 sec.  Iterations = 162451  Nodes = 34309 (30050)
Deterministic time = 76163.12 ticks  (1004.00 ticks/sec)

CPLEX> CPLEX Error  1217: No solution exists.
No file written.
CPLEX> gap is infinite, so writing 0
Exporting results... 
